Name:		mgval_0.45_5B
Optimal value:	-1
#Vehicles:	4
Capacity:	165
Depot Node:	1
#Nodes:		34
#Edges:		35
#Arcs:		56
#Required N:	26
#Required E:	19
#Required A:	30

ReN.	DEMAND	S. COST
N2	14	14
N3	11	11
N4	6	6
N5	6	6
N6	18	18
N7	6	6
N8	6	6
N9	16	16
N10	6	6
N11	10	10
N12	12	12
N13	4	4
N14	12	12
N15	25	25
N17	18	18
N18	14	14
N19	12	12
N20	5	5
N21	11	11
N22	8	8
N23	13	13
N24	26	26
N25	4	4
N27	5	5
N28	24	24
N29	8	8

ReE.	FROM N.	TO N.	T. COST	DEMAND	S. COST
E17	1	2	10	11	11
E18	29	30	4	7	7
E19	22	23	1	2	2
E20	32	33	5	10	10
E21	1	7	8	9	9
E22	4	5	9	12	12
E23	23	24	5	7	7
E24	10	16	2	7	7
E25	13	19	6	8	8
E26	4	11	10	15	15
E27	6	12	7	11	11
E28	3	4	3	7	7
E29	30	31	6	8	8
E30	15	16	5	9	9
E31	2	3	5	6	6
E32	25	30	5	11	11
E33	20	26	3	7	7
E34	33	34	1	4	4
E35	19	25	5	6	6

EDGE	FROM N.	TO N.	T. COST
NrE1	4	10	4
NrE2	7	13	5
NrE3	28	34	2
NrE4	19	20	6
NrE5	15	21	4
NrE6	6	18	9
NrE7	9	15	5
NrE8	23	28	5
NrE9	3	10	2
NrE10	28	33	3
NrE11	22	28	4
NrE12	24	34	10
NrE13	5	11	4
NrE14	12	13	2
NrE15	17	24	9
NrE16	18	19	7

ReA.	FROM N.	TO N.	T. COST	DEMAND	S. COST
A27	9	10	3	3	3
A28	22	15	9	8	8
A29	17	16	5	4	4
A30	7	6	9	6	6
A31	31	32	3	3	3
A32	32	31	3	4	4
A33	18	29	9	7	7
A34	26	25	9	8	8
A35	16	17	5	4	4
A36	13	2	9	8	8
A37	29	25	7	5	5
A38	26	31	9	6	6
A39	18	12	5	6	6
A40	25	26	9	8	8
A41	10	9	3	4	4
A42	22	21	5	4	4
A43	1	6	2	2	2
A44	27	28	10	6	6
A45	21	20	2	2	2
A46	19	12	4	5	5
A47	12	19	4	4	4
A48	16	23	9	8	8
A49	31	26	9	6	6
A50	8	2	8	7	7
A51	21	22	5	4	4
A52	11	24	15	9	9
A53	6	1	2	3	3
A54	6	7	9	6	6
A55	27	32	5	6	6
A56	20	21	2	1	1

ARC	FROM N.	TO N.	T. COST
NrA1	27	26	4
NrA2	11	17	7
NrA3	14	20	3
NrA4	3	9	6
NrA5	14	8	2
NrA6	12	18	5
NrA7	11	10	8
NrA8	23	16	9
NrA9	13	14	4
NrA10	2	8	8
NrA11	9	3	6
NrA12	20	14	3
NrA13	10	11	8
NrA14	21	27	7
NrA15	24	11	15
NrA16	29	18	9
NrA17	15	22	9
NrA18	2	13	9
NrA19	8	9	7
NrA20	8	14	2
NrA21	28	27	10
NrA22	14	13	4
NrA23	17	11	7
NrA24	15	14	1
NrA25	9	8	7
NrA26	25	29	7
